certificates/rado_a14_c72_N29.cnf
c Rad2 upper bound instance: x1 + 14*x2 - x3 = 72, interval [1,29]
p cnf 29 120
1 6 13 0
-1 -6 -13 0
1 7 27 0
-1 -7 -27 0
2 6 14 0
-2 -6 -14 0
2 7 28 0
-2 -7 -28 0
1 3 5 0
-1 -3 -5 0
3 6 15 0
-3 -6 -15 0
3 7 29 0
-3 -7 -29 0
2 4 5 0
-2 -4 -5 0
4 6 16 0
-4 -6 -16 0
3 5 0
-3 -5 0
5 6 17 0
-5 -6 -17 0
4 5 6 0
-4 -5 -6 0
6 18 0
-6 -18 0
5 7 0
-5 -7 0
6 7 19 0
-6 -7 -19 0
5 6 8 0
-5 -6 -8 0
6 8 20 0
-6 -8 -20 0
5 7 9 0
-5 -7 -9 0
6 9 21 0
-6 -9 -21 0
5 8 10 0
-5 -8 -10 0
6 10 22 0
-6 -10 -22 0
5 9 11 0
-5 -9 -11 0
6 11 23 0
-6 -11 -23 0
5 10 12 0
-5 -10 -12 0
6 12 24 0
-6 -12 -24 0
5 11 13 0
-5 -11 -13 0
6 13 25 0
-6 -13 -25 0
5 12 14 0
-5 -12 -14 0
6 14 26 0
-6 -14 -26 0
5 13 15 0
-5 -13 -15 0
6 15 27 0
-6 -15 -27 0
5 14 16 0
-5 -14 -16 0
6 16 28 0
-6 -16 -28 0
1 4 17 0
-1 -4 -17 0
5 15 17 0
-5 -15 -17 0
6 17 29 0
-6 -17 -29 0
2 4 18 0
-2 -4 -18 0
5 16 18 0
-5 -16 -18 0
3 4 19 0
-3 -4 -19 0
5 17 19 0
-5 -17 -19 0
4 20 0
-4 -20 0
5 18 20 0
-5 -18 -20 0
4 5 21 0
-4 -5 -21 0
5 19 21 0
-5 -19 -21 0
4 6 22 0
-4 -6 -22 0
5 20 22 0
-5 -20 -22 0
4 7 23 0
-4 -7 -23 0
5 21 23 0
-5 -21 -23 0
4 8 24 0
-4 -8 -24 0
5 22 24 0
-5 -22 -24 0
4 9 25 0
-4 -9 -25 0
5 23 25 0
-5 -23 -25 0
4 10 26 0
-4 -10 -26 0
5 24 26 0
-5 -24 -26 0
4 11 27 0
-4 -11 -27 0
5 25 27 0
-5 -25 -27 0
4 12 28 0
-4 -12 -28 0
5 26 28 0
-5 -26 -28 0
4 13 29 0
-4 -13 -29 0
5 27 29 0
-5 -27 -29 0
