certificates/rado_a14_c72_N29.drat
5 -29 0
-25 -5 0
-4 -29 0
-5 -29 0
d -27 -5 -29 0
-29 0
-5 0
3 0
7 0
27 0
-1 0
25 0
4 0
-19 0
-20 0
-23 0
-9 0
-11 0
21 0
17 0
22 0
18 0
0
